{"problem":{"name":"problem","mustbe":"<1000028.7"},
"variables":{
"x0":["v1","v2","v3","v4","v5"],
"x1":["v1","v2","v3","v4","v5"],
"x2":["v1","v2","v3","v4","v5"],
"x3":["v1","v2","v3","v4","v5"],
"x4":["v1","v2","v3","v4","v5"],
"x5":["v1","v2","v3","v4","v5"],
"x6":["v1","v2","v3","v4","v5"],
"x7":["v1","v2","v3","v4","v5"],
"x8":["v1","v2","v3","v4","v5"],
"x9":["v1","v2","v3","v4","v5"],
"x10":["v1","v2","v3","v4","v5"],
"x11":["v1","v2","v3","v4","v5"],
"x12":["v1","v2","v3","v4","v5"],
"x13":["v1","v2","v3","v4","v5"],
"x14":["v1","v2","v3","v4","v5"],
"x15":["v1","v2","v3","v4","v5"],
"x16":["v1","v2","v3","v4","v5"],
"x17":["v1","v2","v3","v4","v5"],
"x18":["v1","v2","v3","v4","v5"],
"x19":["v1","v2","v3","v4","v5"],
"x20":["v1","v2","v3","v4","v5"],
"x21":["v1","v2","v3","v4","v5"],
"x22":["v1","v2","v3","v4","v5"],
"x23":["v1","v2","v3","v4","v5"],
"x24":["v1","v2","v3","v4","v5"]
},
"functions": {
"F_0_1":{"scope":["x0","x1"],"defaultcost":0,
"costs":[
0,0,200.0,
1,0,200.0,
1,1,200.0,
2,0,200.0,
2,1,200.0,
2,2,200.0,
3,0,200.0,
3,1,200.0,
3,2,200.0,
3,3,200.0,
4,0,200.0,
4,1,200.0,
4,2,200.0,
4,3,200.0,
4,4,200.0
]},
"F_0_2":{"scope":["x0","x2"],"defaultcost":0,
"costs":[
0,0,200.0,
1,1,200.0,
2,2,200.0,
3,3,200.0,
4,4,200.0
]},
"F_0_3":{"scope":["x0","x3"],"defaultcost":0,
"costs":[
0,0,200.0,
1,1,200.0,
2,2,200.0,
3,3,200.0,
4,4,200.0
]},
"F_0_4":{"scope":["x0","x4"],"defaultcost":0,
"costs":[
0,0,200.0,
1,1,200.0,
2,2,200.0,
3,3,200.0,
4,4,200.0
]},
"F_0_5":{"scope":["x0","x5"],"defaultcost":0,
"costs":[
0,0,200.0,
1,1,200.0,
2,2,200.0,
3,3,200.0,
4,4,200.0
]},
"F_0_6":{"scope":["x0","x6"],"defaultcost":0,
"costs":[

]},
"F_0_7":{"scope":["x0","x7"],"defaultcost":0,
"costs":[

]},
"F_0_8":{"scope":["x0","x8"],"defaultcost":0,
"costs":[

]},
"F_0_9":{"scope":["x0","x9"],"defaultcost":0,
"costs":[

]},
"F_0_10":{"scope":["x0","x10"],"defaultcost":0,
"costs":[
0,0,200.0,
1,1,200.0,
2,2,200.0,
3,3,200.0,
4,4,200.0
]},
"F_0_11":{"scope":["x0","x11"],"defaultcost":0,
"costs":[

]},
"F_0_12":{"scope":["x0","x12"],"defaultcost":0,
"costs":[

]},
"F_0_13":{"scope":["x0","x13"],"defaultcost":0,
"costs":[

]},
"F_0_14":{"scope":["x0","x14"],"defaultcost":0,
"costs":[

]},
"F_0_15":{"scope":["x0","x15"],"defaultcost":0,
"costs":[
0,0,200.0,
1,1,200.0,
2,2,200.0,
3,3,200.0,
4,4,200.0
]},
"F_0_16":{"scope":["x0","x16"],"defaultcost":0,
"costs":[

]},
"F_0_17":{"scope":["x0","x17"],"defaultcost":0,
"costs":[

]},
"F_0_18":{"scope":["x0","x18"],"defaultcost":0,
"costs":[

]},
"F_0_19":{"scope":["x0","x19"],"defaultcost":0,
"costs":[

]},
"F_0_20":{"scope":["x0","x20"],"defaultcost":0,
"costs":[
0,0,200.0,
1,1,200.0,
2,2,200.0,
3,3,200.0,
4,4,200.0
]},
"F_0_21":{"scope":["x0","x21"],"defaultcost":0,
"costs":[

]},
"F_0_22":{"scope":["x0","x22"],"defaultcost":0,
"costs":[

]},
"F_0_23":{"scope":["x0","x23"],"defaultcost":0,
"costs":[

]},
"F_0_24":{"scope":["x0","x24"],"defaultcost":0,
"costs":[

]},
"F_1_2":{"scope":["x1","x2"],"defaultcost":0,
"costs":[
0,0,200.0,
0,1,200.0,
0,2,200.0,
0,3,200.0,
0,4,200.0,
1,1,200.0,
1,2,200.0,
1,3,200.0,
1,4,200.0,
2,2,200.0,
2,3,200.0,
2,4,200.0,
3,3,200.0,
3,4,200.0,
4,4,200.0
]},
"F_1_3":{"scope":["x1","x3"],"defaultcost":0,
"costs":[
0,0,200.0,
1,1,200.0,
2,2,200.0,
3,3,200.0,
4,4,200.0
]},
"F_1_4":{"scope":["x1","x4"],"defaultcost":0,
"costs":[
0,0,200.0,
1,1,200.0,
2,2,200.0,
3,3,200.0,
4,4,200.0
]},
"F_1_5":{"scope":["x1","x5"],"defaultcost":0,
"costs":[

]},
"F_1_6":{"scope":["x1","x6"],"defaultcost":0,
"costs":[
0,0,200.0,
1,1,200.0,
2,2,200.0,
3,3,200.0,
4,4,200.0
]},
"F_1_7":{"scope":["x1","x7"],"defaultcost":0,
"costs":[

]},
"F_1_8":{"scope":["x1","x8"],"defaultcost":0,
"costs":[

]},
"F_1_9":{"scope":["x1","x9"],"defaultcost":0,
"costs":[

]},
"F_1_10":{"scope":["x1","x10"],"defaultcost":0,
"costs":[

]},
"F_1_11":{"scope":["x1","x11"],"defaultcost":0,
"costs":[
0,0,200.0,
1,1,200.0,
2,2,200.0,
3,3,200.0,
4,4,200.0
]},
"F_1_12":{"scope":["x1","x12"],"defaultcost":0,
"costs":[

]},
"F_1_13":{"scope":["x1","x13"],"defaultcost":0,
"costs":[

]},
"F_1_14":{"scope":["x1","x14"],"defaultcost":0,
"costs":[

]},
"F_1_15":{"scope":["x1","x15"],"defaultcost":0,
"costs":[

]},
"F_1_16":{"scope":["x1","x16"],"defaultcost":0,
"costs":[
0,0,200.0,
1,1,200.0,
2,2,200.0,
3,3,200.0,
4,4,200.0
]},
"F_1_17":{"scope":["x1","x17"],"defaultcost":0,
"costs":[

]},
"F_1_18":{"scope":["x1","x18"],"defaultcost":0,
"costs":[

]},
"F_1_19":{"scope":["x1","x19"],"defaultcost":0,
"costs":[

]},
"F_1_20":{"scope":["x1","x20"],"defaultcost":0,
"costs":[

]},
"F_1_21":{"scope":["x1","x21"],"defaultcost":0,
"costs":[
0,0,200.0,
1,1,200.0,
2,2,200.0,
3,3,200.0,
4,4,200.0
]},
"F_1_22":{"scope":["x1","x22"],"defaultcost":0,
"costs":[

]},
"F_1_23":{"scope":["x1","x23"],"defaultcost":0,
"costs":[

]},
"F_1_24":{"scope":["x1","x24"],"defaultcost":0,
"costs":[

]},
"F_2_3":{"scope":["x2","x3"],"defaultcost":0,
"costs":[
0,0,200.0,
1,1,200.0,
2,2,200.0,
3,3,200.0,
4,4,200.0
]},
"F_2_4":{"scope":["x2","x4"],"defaultcost":0,
"costs":[
0,0,200.0,
1,1,200.0,
2,2,200.0,
3,3,200.0,
4,4,200.0
]},
"F_2_5":{"scope":["x2","x5"],"defaultcost":0,
"costs":[

]},
"F_2_6":{"scope":["x2","x6"],"defaultcost":0,
"costs":[

]},
"F_2_7":{"scope":["x2","x7"],"defaultcost":0,
"costs":[
0,0,200.0,
1,1,200.0,
2,2,200.0,
3,3,200.0,
4,4,200.0
]},
"F_2_8":{"scope":["x2","x8"],"defaultcost":0,
"costs":[

]},
"F_2_9":{"scope":["x2","x9"],"defaultcost":0,
"costs":[

]},
"F_2_10":{"scope":["x2","x10"],"defaultcost":0,
"costs":[

]},
"F_2_11":{"scope":["x2","x11"],"defaultcost":0,
"costs":[

]},
"F_2_12":{"scope":["x2","x12"],"defaultcost":0,
"costs":[
0,0,200.0,
1,1,200.0,
2,2,200.0,
3,3,200.0,
4,4,200.0
]},
"F_2_13":{"scope":["x2","x13"],"defaultcost":0,
"costs":[

]},
"F_2_14":{"scope":["x2","x14"],"defaultcost":0,
"costs":[

]},
"F_2_15":{"scope":["x2","x15"],"defaultcost":0,
"costs":[

]},
"F_2_16":{"scope":["x2","x16"],"defaultcost":0,
"costs":[

]},
"F_2_17":{"scope":["x2","x17"],"defaultcost":0,
"costs":[
0,0,200.0,
1,1,200.0,
2,2,200.0,
3,3,200.0,
4,4,200.0
]},
"F_2_18":{"scope":["x2","x18"],"defaultcost":0,
"costs":[

]},
"F_2_19":{"scope":["x2","x19"],"defaultcost":0,
"costs":[

]},
"F_2_20":{"scope":["x2","x20"],"defaultcost":0,
"costs":[

]},
"F_2_21":{"scope":["x2","x21"],"defaultcost":0,
"costs":[

]},
"F_2_22":{"scope":["x2","x22"],"defaultcost":0,
"costs":[
0,0,200.0,
1,1,200.0,
2,2,200.0,
3,3,200.0,
4,4,200.0
]},
"F_2_23":{"scope":["x2","x23"],"defaultcost":0,
"costs":[

]},
"F_2_24":{"scope":["x2","x24"],"defaultcost":0,
"costs":[

]},
"F_3_4":{"scope":["x3","x4"],"defaultcost":0,
"costs":[
0,0,200.0,
1,0,200.0,
1,1,200.0,
2,0,200.0,
2,1,200.0,
2,2,200.0,
3,0,200.0,
3,1,200.0,
3,2,200.0,
3,3,200.0,
4,0,200.0,
4,1,200.0,
4,2,200.0,
4,3,200.0,
4,4,200.0
]},
"F_3_5":{"scope":["x3","x5"],"defaultcost":0,
"costs":[

]},
"F_3_6":{"scope":["x3","x6"],"defaultcost":0,
"costs":[

]},
"F_3_7":{"scope":["x3","x7"],"defaultcost":0,
"costs":[

]},
"F_3_8":{"scope":["x3","x8"],"defaultcost":0,
"costs":[
0,0,200.0,
1,1,200.0,
2,2,200.0,
3,3,200.0,
4,4,200.0
]},
"F_3_9":{"scope":["x3","x9"],"defaultcost":0,
"costs":[

]},
"F_3_10":{"scope":["x3","x10"],"defaultcost":0,
"costs":[

]},
"F_3_11":{"scope":["x3","x11"],"defaultcost":0,
"costs":[

]},
"F_3_12":{"scope":["x3","x12"],"defaultcost":0,
"costs":[

]},
"F_3_13":{"scope":["x3","x13"],"defaultcost":0,
"costs":[
0,0,200.0,
1,1,200.0,
2,2,200.0,
3,3,200.0,
4,4,200.0
]},
"F_3_14":{"scope":["x3","x14"],"defaultcost":0,
"costs":[

]},
"F_3_15":{"scope":["x3","x15"],"defaultcost":0,
"costs":[

]},
"F_3_16":{"scope":["x3","x16"],"defaultcost":0,
"costs":[

]},
"F_3_17":{"scope":["x3","x17"],"defaultcost":0,
"costs":[

]},
"F_3_18":{"scope":["x3","x18"],"defaultcost":0,
"costs":[
0,0,200.0,
1,1,200.0,
2,2,200.0,
3,3,200.0,
4,4,200.0
]},
"F_3_19":{"scope":["x3","x19"],"defaultcost":0,
"costs":[

]},
"F_3_20":{"scope":["x3","x20"],"defaultcost":0,
"costs":[

]},
"F_3_21":{"scope":["x3","x21"],"defaultcost":0,
"costs":[

]},
"F_3_22":{"scope":["x3","x22"],"defaultcost":0,
"costs":[

]},
"F_3_23":{"scope":["x3","x23"],"defaultcost":0,
"costs":[
0,0,200.0,
1,1,200.0,
2,2,200.0,
3,3,200.0,
4,4,200.0
]},
"F_3_24":{"scope":["x3","x24"],"defaultcost":0,
"costs":[

]},
"F_4_5":{"scope":["x4","x5"],"defaultcost":0,
"costs":[

]},
"F_4_6":{"scope":["x4","x6"],"defaultcost":0,
"costs":[

]},
"F_4_7":{"scope":["x4","x7"],"defaultcost":0,
"costs":[

]},
"F_4_8":{"scope":["x4","x8"],"defaultcost":0,
"costs":[

]},
"F_4_9":{"scope":["x4","x9"],"defaultcost":0,
"costs":[
0,0,200.0,
1,1,200.0,
2,2,200.0,
3,3,200.0,
4,4,200.0
]},
"F_4_10":{"scope":["x4","x10"],"defaultcost":0,
"costs":[

]},
"F_4_11":{"scope":["x4","x11"],"defaultcost":0,
"costs":[

]},
"F_4_12":{"scope":["x4","x12"],"defaultcost":0,
"costs":[

]},
"F_4_13":{"scope":["x4","x13"],"defaultcost":0,
"costs":[

]},
"F_4_14":{"scope":["x4","x14"],"defaultcost":0,
"costs":[
0,0,200.0,
1,1,200.0,
2,2,200.0,
3,3,200.0,
4,4,200.0
]},
"F_4_15":{"scope":["x4","x15"],"defaultcost":0,
"costs":[

]},
"F_4_16":{"scope":["x4","x16"],"defaultcost":0,
"costs":[

]},
"F_4_17":{"scope":["x4","x17"],"defaultcost":0,
"costs":[

]},
"F_4_18":{"scope":["x4","x18"],"defaultcost":0,
"costs":[

]},
"F_4_19":{"scope":["x4","x19"],"defaultcost":0,
"costs":[
0,0,200.0,
1,1,200.0,
2,2,200.0,
3,3,200.0,
4,4,200.0
]},
"F_4_20":{"scope":["x4","x20"],"defaultcost":0,
"costs":[

]},
"F_4_21":{"scope":["x4","x21"],"defaultcost":0,
"costs":[

]},
"F_4_22":{"scope":["x4","x22"],"defaultcost":0,
"costs":[

]},
"F_4_23":{"scope":["x4","x23"],"defaultcost":0,
"costs":[

]},
"F_4_24":{"scope":["x4","x24"],"defaultcost":0,
"costs":[
0,0,200.0,
1,1,200.0,
2,2,200.0,
3,3,200.0,
4,4,200.0
]},
"F_5_6":{"scope":["x5","x6"],"defaultcost":0,
"costs":[
0,0,200.0,
1,1,200.0,
2,2,200.0,
3,3,200.0,
4,4,200.0
]},
"F_5_7":{"scope":["x5","x7"],"defaultcost":0,
"costs":[
0,0,200.0,
1,1,200.0,
2,2,200.0,
3,3,200.0,
4,4,200.0
]},
"F_5_8":{"scope":["x5","x8"],"defaultcost":0,
"costs":[
0,0,200.0,
1,1,200.0,
2,2,200.0,
3,3,200.0,
4,4,200.0
]},
"F_5_9":{"scope":["x5","x9"],"defaultcost":0,
"costs":[
0,0,200.0,
1,1,200.0,
2,2,200.0,
3,3,200.0,
4,4,200.0
]},
"F_5_10":{"scope":["x5","x10"],"defaultcost":0,
"costs":[
0,0,200.0,
1,1,200.0,
2,2,200.0,
3,3,200.0,
4,4,200.0
]},
"F_5_11":{"scope":["x5","x11"],"defaultcost":0,
"costs":[

]},
"F_5_12":{"scope":["x5","x12"],"defaultcost":0,
"costs":[

]},
"F_5_13":{"scope":["x5","x13"],"defaultcost":0,
"costs":[

]},
"F_5_14":{"scope":["x5","x14"],"defaultcost":0,
"costs":[

]},
"F_5_15":{"scope":["x5","x15"],"defaultcost":0,
"costs":[
0,0,200.0,
1,1,200.0,
2,2,200.0,
3,3,200.0,
4,4,200.0
]},
"F_5_16":{"scope":["x5","x16"],"defaultcost":0,
"costs":[

]},
"F_5_17":{"scope":["x5","x17"],"defaultcost":0,
"costs":[

]},
"F_5_18":{"scope":["x5","x18"],"defaultcost":0,
"costs":[

]},
"F_5_19":{"scope":["x5","x19"],"defaultcost":0,
"costs":[

]},
"F_5_20":{"scope":["x5","x20"],"defaultcost":0,
"costs":[
0,0,200.0,
1,1,200.0,
2,2,200.0,
3,3,200.0,
4,4,200.0
]},
"F_5_21":{"scope":["x5","x21"],"defaultcost":0,
"costs":[

]},
"F_5_22":{"scope":["x5","x22"],"defaultcost":0,
"costs":[

]},
"F_5_23":{"scope":["x5","x23"],"defaultcost":0,
"costs":[

]},
"F_5_24":{"scope":["x5","x24"],"defaultcost":0,
"costs":[

]},
"F_6_7":{"scope":["x6","x7"],"defaultcost":0,
"costs":[
0,0,200.0,
1,1,200.0,
2,2,200.0,
3,3,200.0,
4,4,200.0
]},
"F_6_8":{"scope":["x6","x8"],"defaultcost":0,
"costs":[
0,0,200.0,
1,1,200.0,
2,2,200.0,
3,3,200.0,
4,4,200.0
]},
"F_6_9":{"scope":["x6","x9"],"defaultcost":0,
"costs":[
0,0,200.0,
1,1,200.0,
2,2,200.0,
3,3,200.0,
4,4,200.0
]},
"F_6_10":{"scope":["x6","x10"],"defaultcost":0,
"costs":[

]},
"F_6_11":{"scope":["x6","x11"],"defaultcost":0,
"costs":[
0,0,200.0,
0,1,200.0,
0,2,200.0,
0,3,200.0,
0,4,200.0,
1,1,200.0,
1,2,200.0,
1,3,200.0,
1,4,200.0,
2,2,200.0,
2,3,200.0,
2,4,200.0,
3,3,200.0,
3,4,200.0,
4,4,200.0
]},
"F_6_12":{"scope":["x6","x12"],"defaultcost":0,
"costs":[

]},
"F_6_13":{"scope":["x6","x13"],"defaultcost":0,
"costs":[

]},
"F_6_14":{"scope":["x6","x14"],"defaultcost":0,
"costs":[

]},
"F_6_15":{"scope":["x6","x15"],"defaultcost":0,
"costs":[

]},
"F_6_16":{"scope":["x6","x16"],"defaultcost":0,
"costs":[
0,0,200.0,
1,1,200.0,
2,2,200.0,
3,3,200.0,
4,4,200.0
]},
"F_6_17":{"scope":["x6","x17"],"defaultcost":0,
"costs":[

]},
"F_6_18":{"scope":["x6","x18"],"defaultcost":0,
"costs":[

]},
"F_6_19":{"scope":["x6","x19"],"defaultcost":0,
"costs":[

]},
"F_6_20":{"scope":["x6","x20"],"defaultcost":0,
"costs":[

]},
"F_6_21":{"scope":["x6","x21"],"defaultcost":0,
"costs":[
0,0,200.0,
1,1,200.0,
2,2,200.0,
3,3,200.0,
4,4,200.0
]},
"F_6_22":{"scope":["x6","x22"],"defaultcost":0,
"costs":[

]},
"F_6_23":{"scope":["x6","x23"],"defaultcost":0,
"costs":[

]},
"F_6_24":{"scope":["x6","x24"],"defaultcost":0,
"costs":[

]},
"F_7_8":{"scope":["x7","x8"],"defaultcost":0,
"costs":[
0,0,200.0,
1,1,200.0,
2,2,200.0,
3,3,200.0,
4,4,200.0
]},
"F_7_9":{"scope":["x7","x9"],"defaultcost":0,
"costs":[
0,0,200.0,
1,1,200.0,
2,2,200.0,
3,3,200.0,
4,4,200.0
]},
"F_7_10":{"scope":["x7","x10"],"defaultcost":0,
"costs":[

]},
"F_7_11":{"scope":["x7","x11"],"defaultcost":0,
"costs":[

]},
"F_7_12":{"scope":["x7","x12"],"defaultcost":0,
"costs":[
0,0,200.0,
1,1,200.0,
2,2,200.0,
3,3,200.0,
4,4,200.0
]},
"F_7_13":{"scope":["x7","x13"],"defaultcost":0,
"costs":[

]},
"F_7_14":{"scope":["x7","x14"],"defaultcost":0,
"costs":[

]},
"F_7_15":{"scope":["x7","x15"],"defaultcost":0,
"costs":[

]},
"F_7_16":{"scope":["x7","x16"],"defaultcost":0,
"costs":[

]},
"F_7_17":{"scope":["x7","x17"],"defaultcost":0,
"costs":[
0,0,200.0,
1,1,200.0,
2,2,200.0,
3,3,200.0,
4,4,200.0
]},
"F_7_18":{"scope":["x7","x18"],"defaultcost":0,
"costs":[

]},
"F_7_19":{"scope":["x7","x19"],"defaultcost":0,
"costs":[

]},
"F_7_20":{"scope":["x7","x20"],"defaultcost":0,
"costs":[

]},
"F_7_21":{"scope":["x7","x21"],"defaultcost":0,
"costs":[

]},
"F_7_22":{"scope":["x7","x22"],"defaultcost":0,
"costs":[
0,0,200.0,
1,1,200.0,
2,2,200.0,
3,3,200.0,
4,4,200.0
]},
"F_7_23":{"scope":["x7","x23"],"defaultcost":0,
"costs":[

]},
"F_7_24":{"scope":["x7","x24"],"defaultcost":0,
"costs":[

]},
"F_8_9":{"scope":["x8","x9"],"defaultcost":0,
"costs":[
0,0,200.0,
1,0,200.0,
1,1,200.0,
2,0,200.0,
2,1,200.0,
2,2,200.0,
3,0,200.0,
3,1,200.0,
3,2,200.0,
3,3,200.0,
4,0,200.0,
4,1,200.0,
4,2,200.0,
4,3,200.0,
4,4,200.0
]},
"F_8_10":{"scope":["x8","x10"],"defaultcost":0,
"costs":[

]},
"F_8_11":{"scope":["x8","x11"],"defaultcost":0,
"costs":[

]},
"F_8_12":{"scope":["x8","x12"],"defaultcost":0,
"costs":[

]},
"F_8_13":{"scope":["x8","x13"],"defaultcost":0,
"costs":[
0,0,200.0,
1,1,200.0,
2,2,200.0,
3,3,200.0,
4,4,200.0
]},
"F_8_14":{"scope":["x8","x14"],"defaultcost":0,
"costs":[

]},
"F_8_15":{"scope":["x8","x15"],"defaultcost":0,
"costs":[

]},
"F_8_16":{"scope":["x8","x16"],"defaultcost":0,
"costs":[

]},
"F_8_17":{"scope":["x8","x17"],"defaultcost":0,
"costs":[

]},
"F_8_18":{"scope":["x8","x18"],"defaultcost":0,
"costs":[
0,0,200.0,
1,1,200.0,
2,2,200.0,
3,3,200.0,
4,4,200.0
]},
"F_8_19":{"scope":["x8","x19"],"defaultcost":0,
"costs":[

]},
"F_8_20":{"scope":["x8","x20"],"defaultcost":0,
"costs":[

]},
"F_8_21":{"scope":["x8","x21"],"defaultcost":0,
"costs":[

]},
"F_8_22":{"scope":["x8","x22"],"defaultcost":0,
"costs":[

]},
"F_8_23":{"scope":["x8","x23"],"defaultcost":0,
"costs":[
0,0,200.0,
1,1,200.0,
2,2,200.0,
3,3,200.0,
4,4,200.0
]},
"F_8_24":{"scope":["x8","x24"],"defaultcost":0,
"costs":[

]},
"F_9_10":{"scope":["x9","x10"],"defaultcost":0,
"costs":[

]},
"F_9_11":{"scope":["x9","x11"],"defaultcost":0,
"costs":[

]},
"F_9_12":{"scope":["x9","x12"],"defaultcost":0,
"costs":[

]},
"F_9_13":{"scope":["x9","x13"],"defaultcost":0,
"costs":[

]},
"F_9_14":{"scope":["x9","x14"],"defaultcost":0,
"costs":[
0,0,200.0,
1,1,200.0,
2,2,200.0,
3,3,200.0,
4,4,200.0
]},
"F_9_15":{"scope":["x9","x15"],"defaultcost":0,
"costs":[

]},
"F_9_16":{"scope":["x9","x16"],"defaultcost":0,
"costs":[

]},
"F_9_17":{"scope":["x9","x17"],"defaultcost":0,
"costs":[

]},
"F_9_18":{"scope":["x9","x18"],"defaultcost":0,
"costs":[

]},
"F_9_19":{"scope":["x9","x19"],"defaultcost":0,
"costs":[
0,0,200.0,
1,1,200.0,
2,2,200.0,
3,3,200.0,
4,4,200.0
]},
"F_9_20":{"scope":["x9","x20"],"defaultcost":0,
"costs":[

]},
"F_9_21":{"scope":["x9","x21"],"defaultcost":0,
"costs":[

]},
"F_9_22":{"scope":["x9","x22"],"defaultcost":0,
"costs":[

]},
"F_9_23":{"scope":["x9","x23"],"defaultcost":0,
"costs":[

]},
"F_9_24":{"scope":["x9","x24"],"defaultcost":0,
"costs":[
0,0,200.0,
1,1,200.0,
2,2,200.0,
3,3,200.0,
4,4,200.0
]},
"F_10_11":{"scope":["x10","x11"],"defaultcost":0,
"costs":[
0,0,200.0,
1,1,200.0,
2,2,200.0,
3,3,200.0,
4,4,200.0
]},
"F_10_12":{"scope":["x10","x12"],"defaultcost":0,
"costs":[
0,0,200.0,
1,1,200.0,
2,2,200.0,
3,3,200.0,
4,4,200.0
]},
"F_10_13":{"scope":["x10","x13"],"defaultcost":0,
"costs":[
0,0,200.0,
1,1,200.0,
2,2,200.0,
3,3,200.0,
4,4,200.0
]},
"F_10_14":{"scope":["x10","x14"],"defaultcost":0,
"costs":[
0,0,200.0,
1,1,200.0,
2,2,200.0,
3,3,200.0,
4,4,200.0
]},
"F_10_15":{"scope":["x10","x15"],"defaultcost":0,
"costs":[
0,0,200.0,
1,1,200.0,
2,2,200.0,
3,3,200.0,
4,4,200.0
]},
"F_10_16":{"scope":["x10","x16"],"defaultcost":0,
"costs":[

]},
"F_10_17":{"scope":["x10","x17"],"defaultcost":0,
"costs":[

]},
"F_10_18":{"scope":["x10","x18"],"defaultcost":0,
"costs":[

]},
"F_10_19":{"scope":["x10","x19"],"defaultcost":0,
"costs":[

]},
"F_10_20":{"scope":["x10","x20"],"defaultcost":0,
"costs":[
0,0,200.0,
1,1,200.0,
2,2,200.0,
3,3,200.0,
4,4,200.0
]},
"F_10_21":{"scope":["x10","x21"],"defaultcost":0,
"costs":[

]},
"F_10_22":{"scope":["x10","x22"],"defaultcost":0,
"costs":[

]},
"F_10_23":{"scope":["x10","x23"],"defaultcost":0,
"costs":[

]},
"F_10_24":{"scope":["x10","x24"],"defaultcost":0,
"costs":[

]},
"F_11_12":{"scope":["x11","x12"],"defaultcost":0,
"costs":[
0,0,200.0,
1,1,200.0,
2,2,200.0,
3,3,200.0,
4,4,200.0
]},
"F_11_13":{"scope":["x11","x13"],"defaultcost":0,
"costs":[
0,0,200.0,
1,1,200.0,
2,2,200.0,
3,3,200.0,
4,4,200.0
]},
"F_11_14":{"scope":["x11","x14"],"defaultcost":0,
"costs":[
0,0,200.0,
1,1,200.0,
2,2,200.0,
3,3,200.0,
4,4,200.0
]},
"F_11_15":{"scope":["x11","x15"],"defaultcost":0,
"costs":[

]},
"F_11_16":{"scope":["x11","x16"],"defaultcost":0,
"costs":[
0,0,200.0,
1,1,200.0,
2,2,200.0,
3,3,200.0,
4,4,200.0
]},
"F_11_17":{"scope":["x11","x17"],"defaultcost":0,
"costs":[

]},
"F_11_18":{"scope":["x11","x18"],"defaultcost":0,
"costs":[

]},
"F_11_19":{"scope":["x11","x19"],"defaultcost":0,
"costs":[

]},
"F_11_20":{"scope":["x11","x20"],"defaultcost":0,
"costs":[

]},
"F_11_21":{"scope":["x11","x21"],"defaultcost":0,
"costs":[
0,0,200.0,
1,1,200.0,
2,2,200.0,
3,3,200.0,
4,4,200.0
]},
"F_11_22":{"scope":["x11","x22"],"defaultcost":0,
"costs":[

]},
"F_11_23":{"scope":["x11","x23"],"defaultcost":0,
"costs":[

]},
"F_11_24":{"scope":["x11","x24"],"defaultcost":0,
"costs":[

]},
"F_12_13":{"scope":["x12","x13"],"defaultcost":0,
"costs":[
0,0,200.0,
1,1,200.0,
2,2,200.0,
3,3,200.0,
4,4,200.0
]},
"F_12_14":{"scope":["x12","x14"],"defaultcost":0,
"costs":[
0,0,200.0,
1,1,200.0,
2,2,200.0,
3,3,200.0,
4,4,200.0
]},
"F_12_15":{"scope":["x12","x15"],"defaultcost":0,
"costs":[

]},
"F_12_16":{"scope":["x12","x16"],"defaultcost":0,
"costs":[

]},
"F_12_17":{"scope":["x12","x17"],"defaultcost":0,
"costs":[
0,0,200.0,
1,1,200.0,
2,2,200.0,
3,3,200.0,
4,4,200.0
]},
"F_12_18":{"scope":["x12","x18"],"defaultcost":0,
"costs":[

]},
"F_12_19":{"scope":["x12","x19"],"defaultcost":0,
"costs":[

]},
"F_12_20":{"scope":["x12","x20"],"defaultcost":0,
"costs":[

]},
"F_12_21":{"scope":["x12","x21"],"defaultcost":0,
"costs":[

]},
"F_12_22":{"scope":["x12","x22"],"defaultcost":0,
"costs":[
0,0,200.0,
1,1,200.0,
2,2,200.0,
3,3,200.0,
4,4,200.0
]},
"F_12_23":{"scope":["x12","x23"],"defaultcost":0,
"costs":[

]},
"F_12_24":{"scope":["x12","x24"],"defaultcost":0,
"costs":[

]},
"F_13_14":{"scope":["x13","x14"],"defaultcost":0,
"costs":[
0,0,200.0,
1,1,200.0,
2,2,200.0,
3,3,200.0,
4,4,200.0
]},
"F_13_15":{"scope":["x13","x15"],"defaultcost":0,
"costs":[

]},
"F_13_16":{"scope":["x13","x16"],"defaultcost":0,
"costs":[

]},
"F_13_17":{"scope":["x13","x17"],"defaultcost":0,
"costs":[

]},
"F_13_18":{"scope":["x13","x18"],"defaultcost":0,
"costs":[
0,0,200.0,
0,1,200.0,
0,2,200.0,
0,3,200.0,
0,4,200.0,
1,1,200.0,
1,2,200.0,
1,3,200.0,
1,4,200.0,
2,2,200.0,
2,3,200.0,
2,4,200.0,
3,3,200.0,
3,4,200.0,
4,4,200.0
]},
"F_13_19":{"scope":["x13","x19"],"defaultcost":0,
"costs":[

]},
"F_13_20":{"scope":["x13","x20"],"defaultcost":0,
"costs":[

]},
"F_13_21":{"scope":["x13","x21"],"defaultcost":0,
"costs":[

]},
"F_13_22":{"scope":["x13","x22"],"defaultcost":0,
"costs":[

]},
"F_13_23":{"scope":["x13","x23"],"defaultcost":0,
"costs":[
0,0,200.0,
1,1,200.0,
2,2,200.0,
3,3,200.0,
4,4,200.0
]},
"F_13_24":{"scope":["x13","x24"],"defaultcost":0,
"costs":[

]},
"F_14_15":{"scope":["x14","x15"],"defaultcost":0,
"costs":[

]},
"F_14_16":{"scope":["x14","x16"],"defaultcost":0,
"costs":[

]},
"F_14_17":{"scope":["x14","x17"],"defaultcost":0,
"costs":[

]},
"F_14_18":{"scope":["x14","x18"],"defaultcost":0,
"costs":[

]},
"F_14_19":{"scope":["x14","x19"],"defaultcost":0,
"costs":[
0,0,200.0,
1,1,200.0,
2,2,200.0,
3,3,200.0,
4,4,200.0
]},
"F_14_20":{"scope":["x14","x20"],"defaultcost":0,
"costs":[

]},
"F_14_21":{"scope":["x14","x21"],"defaultcost":0,
"costs":[

]},
"F_14_22":{"scope":["x14","x22"],"defaultcost":0,
"costs":[

]},
"F_14_23":{"scope":["x14","x23"],"defaultcost":0,
"costs":[

]},
"F_14_24":{"scope":["x14","x24"],"defaultcost":0,
"costs":[
0,0,200.0,
1,1,200.0,
2,2,200.0,
3,3,200.0,
4,4,200.0
]},
"F_15_16":{"scope":["x15","x16"],"defaultcost":0,
"costs":[
0,0,200.0,
1,1,200.0,
2,2,200.0,
3,3,200.0,
4,4,200.0
]},
"F_15_17":{"scope":["x15","x17"],"defaultcost":0,
"costs":[
0,0,200.0,
1,1,200.0,
2,2,200.0,
3,3,200.0,
4,4,200.0
]},
"F_15_18":{"scope":["x15","x18"],"defaultcost":0,
"costs":[
0,0,200.0,
1,1,200.0,
2,2,200.0,
3,3,200.0,
4,4,200.0
]},
"F_15_19":{"scope":["x15","x19"],"defaultcost":0,
"costs":[
0,0,200.0,
1,1,200.0,
2,2,200.0,
3,3,200.0,
4,4,200.0
]},
"F_15_20":{"scope":["x15","x20"],"defaultcost":0,
"costs":[
0,0,200.0,
1,1,200.0,
2,2,200.0,
3,3,200.0,
4,4,200.0
]},
"F_15_21":{"scope":["x15","x21"],"defaultcost":0,
"costs":[

]},
"F_15_22":{"scope":["x15","x22"],"defaultcost":0,
"costs":[

]},
"F_15_23":{"scope":["x15","x23"],"defaultcost":0,
"costs":[

]},
"F_15_24":{"scope":["x15","x24"],"defaultcost":0,
"costs":[

]},
"F_16_17":{"scope":["x16","x17"],"defaultcost":0,
"costs":[
0,0,200.0,
1,1,200.0,
2,2,200.0,
3,3,200.0,
4,4,200.0
]},
"F_16_18":{"scope":["x16","x18"],"defaultcost":0,
"costs":[
0,0,200.0,
1,1,200.0,
2,2,200.0,
3,3,200.0,
4,4,200.0
]},
"F_16_19":{"scope":["x16","x19"],"defaultcost":0,
"costs":[
0,0,200.0,
1,1,200.0,
2,2,200.0,
3,3,200.0,
4,4,200.0
]},
"F_16_20":{"scope":["x16","x20"],"defaultcost":0,
"costs":[

]},
"F_16_21":{"scope":["x16","x21"],"defaultcost":0,
"costs":[
0,0,200.0,
1,1,200.0,
2,2,200.0,
3,3,200.0,
4,4,200.0
]},
"F_16_22":{"scope":["x16","x22"],"defaultcost":0,
"costs":[

]},
"F_16_23":{"scope":["x16","x23"],"defaultcost":0,
"costs":[

]},
"F_16_24":{"scope":["x16","x24"],"defaultcost":0,
"costs":[

]},
"F_17_18":{"scope":["x17","x18"],"defaultcost":0,
"costs":[
0,0,200.0,
1,1,200.0,
2,2,200.0,
3,3,200.0,
4,4,200.0
]},
"F_17_19":{"scope":["x17","x19"],"defaultcost":0,
"costs":[
0,0,200.0,
1,1,200.0,
2,2,200.0,
3,3,200.0,
4,4,200.0
]},
"F_17_20":{"scope":["x17","x20"],"defaultcost":0,
"costs":[

]},
"F_17_21":{"scope":["x17","x21"],"defaultcost":0,
"costs":[

]},
"F_17_22":{"scope":["x17","x22"],"defaultcost":0,
"costs":[
0,0,200.0,
1,1,200.0,
2,2,200.0,
3,3,200.0,
4,4,200.0
]},
"F_17_23":{"scope":["x17","x23"],"defaultcost":0,
"costs":[

]},
"F_17_24":{"scope":["x17","x24"],"defaultcost":0,
"costs":[

]},
"F_18_19":{"scope":["x18","x19"],"defaultcost":0,
"costs":[
0,0,200.0,
1,1,200.0,
2,2,200.0,
3,3,200.0,
4,4,200.0
]},
"F_18_20":{"scope":["x18","x20"],"defaultcost":0,
"costs":[

]},
"F_18_21":{"scope":["x18","x21"],"defaultcost":0,
"costs":[

]},
"F_18_22":{"scope":["x18","x22"],"defaultcost":0,
"costs":[

]},
"F_18_23":{"scope":["x18","x23"],"defaultcost":0,
"costs":[
0,0,200.0,
0,1,200.0,
0,2,200.0,
0,3,200.0,
0,4,200.0,
1,1,200.0,
1,2,200.0,
1,3,200.0,
1,4,200.0,
2,2,200.0,
2,3,200.0,
2,4,200.0,
3,3,200.0,
3,4,200.0,
4,4,200.0
]},
"F_18_24":{"scope":["x18","x24"],"defaultcost":0,
"costs":[

]},
"F_19_20":{"scope":["x19","x20"],"defaultcost":0,
"costs":[

]},
"F_19_21":{"scope":["x19","x21"],"defaultcost":0,
"costs":[

]},
"F_19_22":{"scope":["x19","x22"],"defaultcost":0,
"costs":[

]},
"F_19_23":{"scope":["x19","x23"],"defaultcost":0,
"costs":[

]},
"F_19_24":{"scope":["x19","x24"],"defaultcost":0,
"costs":[
0,0,200.0,
1,1,200.0,
2,2,200.0,
3,3,200.0,
4,4,200.0
]},
"F_20_21":{"scope":["x20","x21"],"defaultcost":0,
"costs":[
0,0,200.0,
1,1,200.0,
2,2,200.0,
3,3,200.0,
4,4,200.0
]},
"F_20_22":{"scope":["x20","x22"],"defaultcost":0,
"costs":[
0,0,200.0,
1,1,200.0,
2,2,200.0,
3,3,200.0,
4,4,200.0
]},
"F_20_23":{"scope":["x20","x23"],"defaultcost":0,
"costs":[
0,0,200.0,
1,1,200.0,
2,2,200.0,
3,3,200.0,
4,4,200.0
]},
"F_20_24":{"scope":["x20","x24"],"defaultcost":0,
"costs":[
0,0,200.0,
1,1,200.0,
2,2,200.0,
3,3,200.0,
4,4,200.0
]},
"F_21_22":{"scope":["x21","x22"],"defaultcost":0,
"costs":[
0,0,200.0,
1,1,200.0,
2,2,200.0,
3,3,200.0,
4,4,200.0
]},
"F_21_23":{"scope":["x21","x23"],"defaultcost":0,
"costs":[
0,0,200.0,
1,1,200.0,
2,2,200.0,
3,3,200.0,
4,4,200.0
]},
"F_21_24":{"scope":["x21","x24"],"defaultcost":0,
"costs":[
0,0,200.0,
1,1,200.0,
2,2,200.0,
3,3,200.0,
4,4,200.0
]},
"F_22_23":{"scope":["x22","x23"],"defaultcost":0,
"costs":[
0,0,200.0,
1,1,200.0,
2,2,200.0,
3,3,200.0,
4,4,200.0
]},
"F_22_24":{"scope":["x22","x24"],"defaultcost":0,
"costs":[
0,0,200.0,
1,1,200.0,
2,2,200.0,
3,3,200.0,
4,4,200.0
]},
"F_23_24":{"scope":["x23","x24"],"defaultcost":0,
"costs":[
0,0,200.0,
1,1,200.0,
2,2,200.0,
3,3,200.0,
4,4,200.0
]},
"F_0":{"scope":["x0"],"defaultcost":999999.0,
"costs":[0,8.1,1,6.7,2,8.2,3,7.2,4,0.0]},
"F_1":{"scope":["x1"],"defaultcost":999999.0,
"costs":[0,3.0,1,7.6,2,0.2,3,0.0,4,5.4]},
"F_2":{"scope":["x2"],"defaultcost":999999.0,
"costs":[0,6.1,1,1.2,2,0.0,3,0.6,4,8.2]},
"F_3":{"scope":["x3"],"defaultcost":999999.0,
"costs":[0,1.0,1,3.5,2,0.7,3,4.1,4,0.0]},
"F_4":{"scope":["x4"],"defaultcost":999999.0,
"costs":[0,4.2,1,4.8,2,2.4,3,8.4,4,0.0]},
"F_5":{"scope":["x5"],"defaultcost":999999.0,
"costs":[0,8.0,1,2.0,2,0.0,3,3.1,4,6.3]},
"F_6":{"scope":["x6"],"defaultcost":999999.0,
"costs":[0,5.7,1,3.1,2,2.7,3,6.7,4,0.0]},
"F_7":{"scope":["x7"],"defaultcost":999999.0,
"costs":[0,5.3,1,0.0,2,5.9,3,6.9,4,0.5]},
"F_8":{"scope":["x8"],"defaultcost":999999.0,
"costs":[0,5.7,1,0.5,2,3.2,3,6.3,4,0.0]},
"F_9":{"scope":["x9"],"defaultcost":999999.0,
"costs":[0,0.6,1,1.4,2,0.4,3,1.5,4,0.0]},
"F_10":{"scope":["x10"],"defaultcost":999999.0,
"costs":[0,0.0,1,7.6,2,3.7,3,5.9,4,4.5]},
"F_11":{"scope":["x11"],"defaultcost":999999.0,
"costs":[0,6.9,1,5.6,2,0.0,3,1.8,4,0.3]},
"F_12":{"scope":["x12"],"defaultcost":999999.0,
"costs":[0,5.2,1,0.0,2,9.4,3,0.0,4,1.8]},
"F_13":{"scope":["x13"],"defaultcost":999999.0,
"costs":[0,5.7,1,0.0,2,5.7,3,4.9,4,3.8]},
"F_14":{"scope":["x14"],"defaultcost":999999.0,
"costs":[0,1.7,1,7.7,2,8.1,3,4.8,4,0.0]},
"F_15":{"scope":["x15"],"defaultcost":999999.0,
"costs":[0,0.8,1,2.6,2,0.0,3,3.7,4,3.9]},
"F_16":{"scope":["x16"],"defaultcost":999999.0,
"costs":[0,6.0,1,1.3,2,6.4,3,3.7,4,0.0]},
"F_17":{"scope":["x17"],"defaultcost":999999.0,
"costs":[0,3.1,1,1.5,2,2.8,3,7.6,4,0.0]},
"F_18":{"scope":["x18"],"defaultcost":999999.0,
"costs":[0,5.9,1,2.2,2,8.1,3,8.3,4,0.0]},
"F_19":{"scope":["x19"],"defaultcost":999999.0,
"costs":[0,3.8,1,6.4,2,1.2,3,0.0,4,5.6]},
"F_20":{"scope":["x20"],"defaultcost":999999.0,
"costs":[0,8.0,1,2.1,2,7.5,3,0.0,4,8.2]},
"F_21":{"scope":["x21"],"defaultcost":999999.0,
"costs":[0,5.7,1,0.0,2,5.0,3,5.5,4,0.0]},
"F_22":{"scope":["x22"],"defaultcost":999999.0,
"costs":[0,6.8,1,8.1,2,4.0,3,0.0,4,8.3]},
"F_23":{"scope":["x23"],"defaultcost":999999.0,
"costs":[0,2.1,1,0.7,2,0.0,3,2.6,4,7.0]},
"F_24":{"scope":["x24"],"defaultcost":999999.0,
"costs":[0,0.0,1,7.7,2,2.9,3,3.0,4,6.5]},
"F":{"scope":[],"costs":[29.7]}
}
}
